benchmarks/VRPTW/TSPTW/solution/n40w80.002.txt.solution
1 31 2 25 7 38 11 16 12 15 14 27 19 9 36 18 24 20 5 28 22 40 17 13 4 39 3 8 26 33 34 37 23 35 21 29 6 30 10 32 41 
431
